HFSDDW
15	6	3
0	79	1	92	2	75
0	4	1	60	2	35
0	33	1	51	2	63
0	66	1	92	2	12
0	6	1	55	2	25
0	57	1	15	2	13
0	88	1	13	2	3
0	5	1	39	2	8
0	7	1	48	2	42
0	55	1	1	2	54
0	7	1	14	2	82
0	29	1	54	2	21
0	74	1	28	2	36
0	78	1	1	2	16
0	19	1	1	2	83
LBCmax: 320
RELDUE
-1	160	9	8
-1	96	5	1
-1	129	6	8
-1	118	3	7
-1	109	1	1
-1	133	8	8
-1	139	7	1
-1	156	2	8
-1	137	8	4
-1	150	3	1
-1	144	5	9
-1	131	2	8
-1	139	9	4
-1	159	2	2
-1	103	4	8
DDW
149	171
95	97
124	134
114	122
99	119
129	137
129	149
154	158
130	144
148	152
134	154
127	135
131	147
153	165
99	107
